% Logging successfully configured
%%%mzn-stat: initTime=0.016817814
%%%mzn-stat: objective=895
%%%mzn-stat: nodes=187
%%%mzn-stat: restarts=0
%%%mzn-stat: peakDepth=185
%%%mzn-stat: solveTime=0.000342678
%%%mzn-stat: variables=380
%%%mzn-stat: propagators=450
%%%mzn-stat: failures=2
%%%mzn-stat: propagations=1502
%%%mzn-stat: nogoods=2
%%%mzn-stat: numAtomicConstraintsPropagated=0
%%%mzn-stat: circuitNumber191PropagationsThatFoundConflict=0
%%%mzn-stat: circuitNumber191TotalFixedEdgesAtConflict=0
%%%mzn-stat: circuitNumber191NumberOfConflicts=0
%%%mzn-stat: circuitNumber191PropagationsThatPruned=1
%%%mzn-stat: circuitNumber191PropagationsTotal=19
%%%mzn-stat: AverageConflictSize=2
%%%mzn-stat: NumUnitNogoodsLearned=0
%%%mzn-stat: AverageLearnedNogoodLength=8.5
%%%mzn-stat: AverageBacktrackAmount=0
%%%mzn-stat: AverageLbd=6
%%%mzn-stat: 2AutonomousSearchNumBackupCalled=169
%%%mzn-stat: 2AutonomousSearchNumPredicatesRemoved=0
%%%mzn-stat: 2AutonomousSearchNumCalls=170
%%%mzn-stat: 2AutonomousSearchNumPredicatesAdded=84
%%%mzn-stat: 2AutonomousSearchAverageSizeOfHeap=0.49411764705882355
%%%mzn-stat: 2AutonomousSearchNumAssignedPredicatesEncountered=84
%%%mzn-stat-end
maxleg = 895;
succ = array1d(1..20,[2, 4, 6, 7, 1, 8, 11, 9, 10, 12, 3, 15, 17, 16, 13, 5, 18, 20, 14, 19]);
% time elapsed: 6.12 s
----------
%%%mzn-stat: initTime=0.016817814
%%%mzn-stat: objective=663
%%%mzn-stat: nodes=366
%%%mzn-stat: restarts=0
%%%mzn-stat: peakDepth=185
%%%mzn-stat: solveTime=0.000492148
%%%mzn-stat: variables=380
%%%mzn-stat: propagators=450
%%%mzn-stat: failures=2
%%%mzn-stat: propagations=2306
%%%mzn-stat: nogoods=2
%%%mzn-stat: numAtomicConstraintsPropagated=0
%%%mzn-stat: circuitNumber191PropagationsThatFoundConflict=0
%%%mzn-stat: circuitNumber191TotalFixedEdgesAtConflict=0
%%%mzn-stat: circuitNumber191NumberOfConflicts=0
%%%mzn-stat: circuitNumber191PropagationsThatPruned=2
%%%mzn-stat: circuitNumber191PropagationsTotal=36
%%%mzn-stat: AverageConflictSize=2
%%%mzn-stat: NumUnitNogoodsLearned=0
%%%mzn-stat: AverageLearnedNogoodLength=8.5
%%%mzn-stat: AverageBacktrackAmount=0
%%%mzn-stat: AverageLbd=6
%%%mzn-stat: 2AutonomousSearchNumBackupCalled=331
%%%mzn-stat: 2AutonomousSearchNumPredicatesRemoved=0
%%%mzn-stat: 2AutonomousSearchNumCalls=333
%%%mzn-stat: 2AutonomousSearchNumPredicatesAdded=84
%%%mzn-stat: 2AutonomousSearchAverageSizeOfHeap=0.5045045045045045
%%%mzn-stat: 2AutonomousSearchNumAssignedPredicatesEncountered=168
%%%mzn-stat-end
maxleg = 663;
succ = array1d(1..20,[2, 4, 6, 8, 1, 9, 5, 3, 10, 11, 12, 15, 17, 16, 13, 7, 18, 20, 14, 19]);
% time elapsed: 6.12 s
----------
%%%mzn-stat: initTime=0.016817814
%%%mzn-stat: objective=601
%%%mzn-stat: nodes=542
%%%mzn-stat: restarts=0
%%%mzn-stat: peakDepth=185
%%%mzn-stat: solveTime=0.000656903
%%%mzn-stat: variables=380
%%%mzn-stat: propagators=450
%%%mzn-stat: failures=2
%%%mzn-stat: propagations=3101
%%%mzn-stat: nogoods=2
%%%mzn-stat: numAtomicConstraintsPropagated=0
%%%mzn-stat: circuitNumber191PropagationsThatFoundConflict=0
%%%mzn-stat: circuitNumber191TotalFixedEdgesAtConflict=0
%%%mzn-stat: circuitNumber191NumberOfConflicts=0
%%%mzn-stat: circuitNumber191PropagationsThatPruned=3
%%%mzn-stat: circuitNumber191PropagationsTotal=53
%%%mzn-stat: AverageConflictSize=2
%%%mzn-stat: NumUnitNogoodsLearned=0
%%%mzn-stat: AverageLearnedNogoodLength=8.5
%%%mzn-stat: AverageBacktrackAmount=0
%%%mzn-stat: AverageLbd=6
%%%mzn-stat: 2AutonomousSearchNumBackupCalled=490
%%%mzn-stat: 2AutonomousSearchNumPredicatesRemoved=0
%%%mzn-stat: 2AutonomousSearchNumCalls=493
%%%mzn-stat: 2AutonomousSearchNumPredicatesAdded=84
%%%mzn-stat: 2AutonomousSearchAverageSizeOfHeap=0.5111561866125761
%%%mzn-stat: 2AutonomousSearchNumAssignedPredicatesEncountered=252
%%%mzn-stat-end
maxleg = 601;
succ = array1d(1..20,[2, 4, 6, 9, 1, 8, 5, 10, 3, 11, 12, 15, 17, 16, 13, 7, 18, 20, 14, 19]);
% time elapsed: 6.12 s
----------
%%%mzn-stat: initTime=0.016817814
%%%mzn-stat: objective=557
%%%mzn-stat: nodes=727
%%%mzn-stat: restarts=0
%%%mzn-stat: peakDepth=185
%%%mzn-stat: solveTime=0.001933774
%%%mzn-stat: variables=380
%%%mzn-stat: propagators=450
%%%mzn-stat: failures=20
%%%mzn-stat: propagations=5844
%%%mzn-stat: nogoods=20
%%%mzn-stat: numAtomicConstraintsPropagated=0
%%%mzn-stat: circuitNumber191PropagationsThatFoundConflict=0
%%%mzn-stat: circuitNumber191TotalFixedEdgesAtConflict=0
%%%mzn-stat: circuitNumber191NumberOfConflicts=0
%%%mzn-stat: circuitNumber191PropagationsThatPruned=10
%%%mzn-stat: circuitNumber191PropagationsTotal=90
%%%mzn-stat: AverageConflictSize=2
%%%mzn-stat: NumUnitNogoodsLearned=0
%%%mzn-stat: AverageLearnedNogoodLength=12.85
%%%mzn-stat: AverageBacktrackAmount=0
%%%mzn-stat: AverageLbd=7.55
%%%mzn-stat: 2AutonomousSearchNumBackupCalled=641
%%%mzn-stat: 2AutonomousSearchNumPredicatesRemoved=0
%%%mzn-stat: 2AutonomousSearchNumCalls=645
%%%mzn-stat: 2AutonomousSearchNumPredicatesAdded=337
%%%mzn-stat: 2AutonomousSearchAverageSizeOfHeap=0.813953488372093
%%%mzn-stat: 2AutonomousSearchNumAssignedPredicatesEncountered=525
%%%mzn-stat-end
maxleg = 557;
succ = array1d(1..20,[2, 4, 6, 9, 1, 8, 5, 10, 3, 15, 13, 11, 17, 16, 12, 7, 18, 20, 14, 19]);
% time elapsed: 6.12 s
----------
%%%mzn-stat: initTime=0.016817814
%%%mzn-stat: objective=550
%%%mzn-stat: nodes=901
%%%mzn-stat: restarts=0
%%%mzn-stat: peakDepth=185
%%%mzn-stat: solveTime=0.002445827
%%%mzn-stat: variables=380
%%%mzn-stat: propagators=450
%%%mzn-stat: failures=28
%%%mzn-stat: propagations=7339
%%%mzn-stat: nogoods=28
%%%mzn-stat: numAtomicConstraintsPropagated=0
%%%mzn-stat: circuitNumber191PropagationsThatFoundConflict=0
%%%mzn-stat: circuitNumber191TotalFixedEdgesAtConflict=0
%%%mzn-stat: circuitNumber191NumberOfConflicts=0
%%%mzn-stat: circuitNumber191PropagationsThatPruned=12
%%%mzn-stat: circuitNumber191PropagationsTotal=114
%%%mzn-stat: AverageConflictSize=2.0714285714285716
%%%mzn-stat: NumUnitNogoodsLearned=0
%%%mzn-stat: AverageLearnedNogoodLength=11.214285714285714
%%%mzn-stat: AverageBacktrackAmount=0
%%%mzn-stat: AverageLbd=7.035714285714286
%%%mzn-stat: 2AutonomousSearchNumBackupCalled=792
%%%mzn-stat: 2AutonomousSearchNumPredicatesRemoved=0
%%%mzn-stat: 2AutonomousSearchNumCalls=797
%%%mzn-stat: 2AutonomousSearchNumPredicatesAdded=488
%%%mzn-stat: 2AutonomousSearchAverageSizeOfHeap=1.0225846925972397
%%%mzn-stat: 2AutonomousSearchNumAssignedPredicatesEncountered=815
%%%mzn-stat-end
maxleg = 550;
succ = array1d(1..20,[2, 5, 6, 1, 7, 4, 13, 3, 8, 9, 12, 15, 17, 18, 10, 20, 16, 11, 14, 19]);
% time elapsed: 6.12 s
----------
%%%mzn-stat: initTime=0.016817814
%%%mzn-stat: objective=512
%%%mzn-stat: nodes=1069
%%%mzn-stat: restarts=0
%%%mzn-stat: peakDepth=185
%%%mzn-stat: solveTime=0.00284697
%%%mzn-stat: variables=380
%%%mzn-stat: propagators=450
%%%mzn-stat: failures=31
%%%mzn-stat: propagations=8443
%%%mzn-stat: nogoods=31
%%%mzn-stat: numAtomicConstraintsPropagated=0
%%%mzn-stat: circuitNumber191PropagationsThatFoundConflict=0
%%%mzn-stat: circuitNumber191TotalFixedEdgesAtConflict=0
%%%mzn-stat: circuitNumber191NumberOfConflicts=0
%%%mzn-stat: circuitNumber191PropagationsThatPruned=16
%%%mzn-stat: circuitNumber191PropagationsTotal=133
%%%mzn-stat: AverageConflictSize=2.225806451612903
%%%mzn-stat: NumUnitNogoodsLearned=0
%%%mzn-stat: AverageLearnedNogoodLength=11.483870967741936
%%%mzn-stat: AverageBacktrackAmount=0
%%%mzn-stat: AverageLbd=7.064516129032258
%%%mzn-stat: 2AutonomousSearchNumBackupCalled=943
%%%mzn-stat: 2AutonomousSearchNumPredicatesRemoved=0
%%%mzn-stat: 2AutonomousSearchNumCalls=949
%%%mzn-stat: 2AutonomousSearchNumPredicatesAdded=634
%%%mzn-stat: 2AutonomousSearchAverageSizeOfHeap=1.19072708113804
%%%mzn-stat: 2AutonomousSearchNumAssignedPredicatesEncountered=1130
%%%mzn-stat-end
maxleg = 512;
succ = array1d(1..20,[2, 5, 6, 1, 7, 4, 13, 3, 8, 11, 12, 15, 17, 18, 9, 20, 16, 10, 14, 19]);
% time elapsed: 6.12 s
----------
%%%mzn-stat: initTime=0.016817814
%%%mzn-stat: objective=451
%%%mzn-stat: nodes=1228
%%%mzn-stat: restarts=0
%%%mzn-stat: peakDepth=185
%%%mzn-stat: solveTime=0.003268799
%%%mzn-stat: variables=380
%%%mzn-stat: propagators=450
%%%mzn-stat: failures=34
%%%mzn-stat: propagations=9546
%%%mzn-stat: nogoods=34
%%%mzn-stat: numAtomicConstraintsPropagated=0
%%%mzn-stat: circuitNumber191PropagationsThatFoundConflict=1
%%%mzn-stat: circuitNumber191TotalFixedEdgesAtConflict=13
%%%mzn-stat: circuitNumber191NumberOfConflicts=1
%%%mzn-stat: circuitNumber191PropagationsThatPruned=20
%%%mzn-stat: circuitNumber191PropagationsTotal=153
%%%mzn-stat: AverageConflictSize=2.6470588235294117
%%%mzn-stat: NumUnitNogoodsLearned=0
%%%mzn-stat: AverageLearnedNogoodLength=11.882352941176471
%%%mzn-stat: AverageBacktrackAmount=0
%%%mzn-stat: AverageLbd=7.294117647058823
%%%mzn-stat: 2AutonomousSearchNumBackupCalled=1084
%%%mzn-stat: 2AutonomousSearchNumPredicatesRemoved=0
%%%mzn-stat: 2AutonomousSearchNumCalls=1091
%%%mzn-stat: 2AutonomousSearchNumPredicatesAdded=768
%%%mzn-stat: 2AutonomousSearchAverageSizeOfHeap=1.3510540788267644
%%%mzn-stat: 2AutonomousSearchNumAssignedPredicatesEncountered=1474
%%%mzn-stat-end
maxleg = 451;
succ = array1d(1..20,[2, 5, 6, 1, 7, 8, 13, 9, 4, 11, 3, 15, 17, 18, 10, 20, 16, 12, 14, 19]);
% time elapsed: 6.12 s
----------
%%%mzn-stat: initTime=0.016817814
%%%mzn-stat: objective=449
%%%mzn-stat: nodes=1394
%%%mzn-stat: restarts=0
%%%mzn-stat: peakDepth=185
%%%mzn-stat: solveTime=0.003646656
%%%mzn-stat: variables=380
%%%mzn-stat: propagators=450
%%%mzn-stat: failures=36
%%%mzn-stat: propagations=10613
%%%mzn-stat: nogoods=36
%%%mzn-stat: numAtomicConstraintsPropagated=0
%%%mzn-stat: circuitNumber191PropagationsThatFoundConflict=1
%%%mzn-stat: circuitNumber191TotalFixedEdgesAtConflict=13
%%%mzn-stat: circuitNumber191NumberOfConflicts=1
%%%mzn-stat: circuitNumber191PropagationsThatPruned=22
%%%mzn-stat: circuitNumber191PropagationsTotal=170
%%%mzn-stat: AverageConflictSize=2.6666666666666665
%%%mzn-stat: NumUnitNogoodsLearned=0
%%%mzn-stat: AverageLearnedNogoodLength=12.13888888888889
%%%mzn-stat: AverageBacktrackAmount=0
%%%mzn-stat: AverageLbd=7.416666666666667
%%%mzn-stat: 2AutonomousSearchNumBackupCalled=1234
%%%mzn-stat: 2AutonomousSearchNumPredicatesRemoved=0
%%%mzn-stat: 2AutonomousSearchNumCalls=1242
%%%mzn-stat: 2AutonomousSearchNumPredicatesAdded=920
%%%mzn-stat: 2AutonomousSearchAverageSizeOfHeap=1.4669887278582932
%%%mzn-stat: 2AutonomousSearchNumAssignedPredicatesEncountered=1822
%%%mzn-stat-end
maxleg = 449;
succ = array1d(1..20,[2, 5, 6, 1, 7, 8, 13, 9, 4, 11, 12, 15, 17, 18, 3, 20, 16, 10, 14, 19]);
% time elapsed: 6.12 s
----------
%%%mzn-stat: initTime=0.016817814
%%%mzn-stat: objective=440
%%%mzn-stat: nodes=1553
%%%mzn-stat: restarts=0
%%%mzn-stat: peakDepth=185
%%%mzn-stat: solveTime=0.004566714
%%%mzn-stat: variables=380
%%%mzn-stat: propagators=450
%%%mzn-stat: failures=48
%%%mzn-stat: propagations=13088
%%%mzn-stat: nogoods=48
%%%mzn-stat: numAtomicConstraintsPropagated=0
%%%mzn-stat: circuitNumber191PropagationsThatFoundConflict=4
%%%mzn-stat: circuitNumber191TotalFixedEdgesAtConflict=73
%%%mzn-stat: circuitNumber191NumberOfConflicts=4
%%%mzn-stat: circuitNumber191PropagationsThatPruned=27
%%%mzn-stat: circuitNumber191PropagationsTotal=201
%%%mzn-stat: AverageConflictSize=3.25
%%%mzn-stat: NumUnitNogoodsLearned=0
%%%mzn-stat: AverageLearnedNogoodLength=12.8125
%%%mzn-stat: AverageBacktrackAmount=0
%%%mzn-stat: AverageLbd=7.6875
%%%mzn-stat: 2AutonomousSearchNumBackupCalled=1366
%%%mzn-stat: 2AutonomousSearchNumPredicatesRemoved=0
%%%mzn-stat: 2AutonomousSearchNumCalls=1375
%%%mzn-stat: 2AutonomousSearchNumPredicatesAdded=1222
%%%mzn-stat: 2AutonomousSearchAverageSizeOfHeap=1.6356363636363636
%%%mzn-stat: 2AutonomousSearchNumAssignedPredicatesEncountered=2249
%%%mzn-stat-end
maxleg = 440;
succ = array1d(1..20,[2, 5, 6, 1, 7, 8, 13, 9, 10, 18, 12, 15, 11, 4, 3, 20, 16, 17, 14, 19]);
% time elapsed: 6.12 s
----------
%%%mzn-stat: initTime=0.016817814
%%%mzn-stat: objective=416
%%%mzn-stat: nodes=1703
%%%mzn-stat: restarts=0
%%%mzn-stat: peakDepth=185
%%%mzn-stat: solveTime=0.005695468
%%%mzn-stat: variables=380
%%%mzn-stat: propagators=450
%%%mzn-stat: failures=64
%%%mzn-stat: propagations=16206
%%%mzn-stat: nogoods=64
%%%mzn-stat: numAtomicConstraintsPropagated=0
%%%mzn-stat: circuitNumber191PropagationsThatFoundConflict=5
%%%mzn-stat: circuitNumber191TotalFixedEdgesAtConflict=87
%%%mzn-stat: circuitNumber191NumberOfConflicts=5
%%%mzn-stat: circuitNumber191PropagationsThatPruned=37
%%%mzn-stat: circuitNumber191PropagationsTotal=242
%%%mzn-stat: AverageConflictSize=3.15625
%%%mzn-stat: NumUnitNogoodsLearned=0
%%%mzn-stat: AverageLearnedNogoodLength=13.15625
%%%mzn-stat: AverageBacktrackAmount=0
%%%mzn-stat: AverageLbd=7.390625
%%%mzn-stat: 2AutonomousSearchNumBackupCalled=1485
%%%mzn-stat: 2AutonomousSearchNumPredicatesRemoved=0
%%%mzn-stat: 2AutonomousSearchNumCalls=1495
%%%mzn-stat: 2AutonomousSearchNumPredicatesAdded=1529
%%%mzn-stat: 2AutonomousSearchAverageSizeOfHeap=1.8220735785953177
%%%mzn-stat: 2AutonomousSearchNumAssignedPredicatesEncountered=2724
%%%mzn-stat-end
maxleg = 416;
succ = array1d(1..20,[2, 5, 6, 1, 7, 8, 13, 15, 4, 3, 12, 18, 11, 19, 9, 14, 16, 17, 20, 10]);
% time elapsed: 6.12 s
----------
%%%mzn-stat: initTime=0.016817814
%%%mzn-stat: objective=385
%%%mzn-stat: nodes=1863
%%%mzn-stat: restarts=0
%%%mzn-stat: peakDepth=185
%%%mzn-stat: solveTime=0.008533646
%%%mzn-stat: variables=380
%%%mzn-stat: propagators=450
%%%mzn-stat: failures=102
%%%mzn-stat: propagations=21014
%%%mzn-stat: nogoods=102
%%%mzn-stat: numAtomicConstraintsPropagated=0
%%%mzn-stat: circuitNumber191PropagationsThatFoundConflict=9
%%%mzn-stat: circuitNumber191TotalFixedEdgesAtConflict=133
%%%mzn-stat: circuitNumber191NumberOfConflicts=9
%%%mzn-stat: circuitNumber191PropagationsThatPruned=39
%%%mzn-stat: circuitNumber191PropagationsTotal=288
%%%mzn-stat: AverageConflictSize=3.235294117647059
%%%mzn-stat: NumUnitNogoodsLearned=0
%%%mzn-stat: AverageLearnedNogoodLength=15.490196078431373
%%%mzn-stat: AverageBacktrackAmount=0
%%%mzn-stat: AverageLbd=7.529411764705882
%%%mzn-stat: 2AutonomousSearchNumBackupCalled=1594
%%%mzn-stat: 2AutonomousSearchNumPredicatesRemoved=0
%%%mzn-stat: 2AutonomousSearchNumCalls=1605
%%%mzn-stat: 2AutonomousSearchNumPredicatesAdded=2005
%%%mzn-stat: 2AutonomousSearchAverageSizeOfHeap=2.0722741433021805
%%%mzn-stat: 2AutonomousSearchNumAssignedPredicatesEncountered=3326
%%%mzn-stat-end
maxleg = 385;
succ = array1d(1..20,[2, 5, 6, 14, 7, 8, 13, 15, 4, 1, 12, 3, 11, 19, 9, 17, 18, 10, 20, 16]);
% time elapsed: 6.12 s
----------
%%%mzn-stat: initTime=0.016817814
%%%mzn-stat: objective=383
%%%mzn-stat: nodes=1991
%%%mzn-stat: restarts=0
%%%mzn-stat: peakDepth=185
%%%mzn-stat: solveTime=0.008811804
%%%mzn-stat: variables=380
%%%mzn-stat: propagators=450
%%%mzn-stat: failures=102
%%%mzn-stat: propagations=21865
%%%mzn-stat: nogoods=102
%%%mzn-stat: numAtomicConstraintsPropagated=0
%%%mzn-stat: circuitNumber191PropagationsThatFoundConflict=9
%%%mzn-stat: circuitNumber191TotalFixedEdgesAtConflict=133
%%%mzn-stat: circuitNumber191NumberOfConflicts=9
%%%mzn-stat: circuitNumber191PropagationsThatPruned=41
%%%mzn-stat: circuitNumber191PropagationsTotal=304
%%%mzn-stat: AverageConflictSize=3.235294117647059
%%%mzn-stat: NumUnitNogoodsLearned=0
%%%mzn-stat: AverageLearnedNogoodLength=15.490196078431373
%%%mzn-stat: AverageBacktrackAmount=0
%%%mzn-stat: AverageLbd=7.529411764705882
%%%mzn-stat: 2AutonomousSearchNumBackupCalled=1707
%%%mzn-stat: 2AutonomousSearchNumPredicatesRemoved=0
%%%mzn-stat: 2AutonomousSearchNumCalls=1719
%%%mzn-stat: 2AutonomousSearchNumPredicatesAdded=2005
%%%mzn-stat: 2AutonomousSearchAverageSizeOfHeap=2.285049447353112
%%%mzn-stat: 2AutonomousSearchNumAssignedPredicatesEncountered=3928
%%%mzn-stat-end
maxleg = 383;
succ = array1d(1..20,[2, 5, 6, 14, 7, 8, 13, 15, 4, 3, 12, 10, 11, 16, 9, 17, 18, 20, 1, 19]);
% time elapsed: 6.12 s
----------
%%%mzn-stat: initTime=0.016817814
%%%mzn-stat: objective=377
%%%mzn-stat: nodes=2112
%%%mzn-stat: restarts=0
%%%mzn-stat: peakDepth=185
%%%mzn-stat: solveTime=0.009065495
%%%mzn-stat: variables=380
%%%mzn-stat: propagators=450
%%%mzn-stat: failures=102
%%%mzn-stat: propagations=22711
%%%mzn-stat: nogoods=102
%%%mzn-stat: numAtomicConstraintsPropagated=0
%%%mzn-stat: circuitNumber191PropagationsThatFoundConflict=9
%%%mzn-stat: circuitNumber191TotalFixedEdgesAtConflict=133
%%%mzn-stat: circuitNumber191NumberOfConflicts=9
%%%mzn-stat: circuitNumber191PropagationsThatPruned=43
%%%mzn-stat: circuitNumber191PropagationsTotal=319
%%%mzn-stat: AverageConflictSize=3.235294117647059
%%%mzn-stat: NumUnitNogoodsLearned=0
%%%mzn-stat: AverageLearnedNogoodLength=15.490196078431373
%%%mzn-stat: AverageBacktrackAmount=0
%%%mzn-stat: AverageLbd=7.529411764705882
%%%mzn-stat: 2AutonomousSearchNumBackupCalled=1814
%%%mzn-stat: 2AutonomousSearchNumPredicatesRemoved=0
%%%mzn-stat: 2AutonomousSearchNumCalls=1827
%%%mzn-stat: 2AutonomousSearchNumPredicatesAdded=2005
%%%mzn-stat: 2AutonomousSearchAverageSizeOfHeap=2.4794745484400655
%%%mzn-stat: 2AutonomousSearchNumAssignedPredicatesEncountered=4530
%%%mzn-stat-end
maxleg = 377;
succ = array1d(1..20,[2, 5, 6, 14, 16, 8, 13, 15, 1, 3, 12, 10, 11, 18, 9, 17, 20, 7, 4, 19]);
% time elapsed: 6.12 s
----------
%%%mzn-stat: initTime=0.016817814
%%%mzn-stat: objective=376
%%%mzn-stat: nodes=2219
%%%mzn-stat: restarts=0
%%%mzn-stat: peakDepth=185
%%%mzn-stat: solveTime=0.009411845
%%%mzn-stat: variables=380
%%%mzn-stat: propagators=450
%%%mzn-stat: failures=103
%%%mzn-stat: propagations=23652
%%%mzn-stat: nogoods=103
%%%mzn-stat: numAtomicConstraintsPropagated=0
%%%mzn-stat: circuitNumber191PropagationsThatFoundConflict=9
%%%mzn-stat: circuitNumber191TotalFixedEdgesAtConflict=133
%%%mzn-stat: circuitNumber191NumberOfConflicts=9
%%%mzn-stat: circuitNumber191PropagationsThatPruned=45
%%%mzn-stat: circuitNumber191PropagationsTotal=334
%%%mzn-stat: AverageConflictSize=3.2233009708737863
%%%mzn-stat: NumUnitNogoodsLearned=0
%%%mzn-stat: AverageLearnedNogoodLength=15.563106796116505
%%%mzn-stat: AverageBacktrackAmount=0
%%%mzn-stat: AverageLbd=7.58252427184466
%%%mzn-stat: 2AutonomousSearchNumBackupCalled=1907
%%%mzn-stat: 2AutonomousSearchNumPredicatesRemoved=0
%%%mzn-stat: 2AutonomousSearchNumCalls=1921
%%%mzn-stat: 2AutonomousSearchNumPredicatesAdded=2127
%%%mzn-stat: 2AutonomousSearchAverageSizeOfHeap=2.6720458094742323
%%%mzn-stat: 2AutonomousSearchNumAssignedPredicatesEncountered=5133
%%%mzn-stat-end
maxleg = 376;
succ = array1d(1..20,[2, 5, 6, 14, 16, 8, 13, 15, 4, 3, 12, 10, 11, 18, 9, 7, 20, 17, 1, 19]);
% time elapsed: 6.12 s
----------
%%%mzn-stat: initTime=0.016817814
%%%mzn-stat: objective=373
%%%mzn-stat: nodes=2332
%%%mzn-stat: restarts=0
%%%mzn-stat: peakDepth=185
%%%mzn-stat: solveTime=0.009656739
%%%mzn-stat: variables=380
%%%mzn-stat: propagators=450
%%%mzn-stat: failures=103
%%%mzn-stat: propagations=24505
%%%mzn-stat: nogoods=103
%%%mzn-stat: numAtomicConstraintsPropagated=0
%%%mzn-stat: circuitNumber191PropagationsThatFoundConflict=9
%%%mzn-stat: circuitNumber191TotalFixedEdgesAtConflict=133
%%%mzn-stat: circuitNumber191NumberOfConflicts=9
%%%mzn-stat: circuitNumber191PropagationsThatPruned=46
%%%mzn-stat: circuitNumber191PropagationsTotal=347
%%%mzn-stat: AverageConflictSize=3.2233009708737863
%%%mzn-stat: NumUnitNogoodsLearned=0
%%%mzn-stat: AverageLearnedNogoodLength=15.563106796116505
%%%mzn-stat: AverageBacktrackAmount=0
%%%mzn-stat: AverageLbd=7.58252427184466
%%%mzn-stat: 2AutonomousSearchNumBackupCalled=2007
%%%mzn-stat: 2AutonomousSearchNumPredicatesRemoved=0
%%%mzn-stat: 2AutonomousSearchNumCalls=2022
%%%mzn-stat: 2AutonomousSearchNumPredicatesAdded=2127
%%%mzn-stat: 2AutonomousSearchAverageSizeOfHeap=2.836795252225519
%%%mzn-stat: 2AutonomousSearchNumAssignedPredicatesEncountered=5736
%%%mzn-stat-end
maxleg = 373;
succ = array1d(1..20,[2, 5, 6, 14, 16, 8, 13, 15, 10, 18, 12, 3, 11, 1, 9, 7, 20, 17, 4, 19]);
% time elapsed: 6.12 s
----------
%%%mzn-stat: initTime=0.016817814
%%%mzn-stat: objective=370
%%%mzn-stat: nodes=2449
%%%mzn-stat: restarts=0
%%%mzn-stat: peakDepth=185
%%%mzn-stat: solveTime=0.010406398
%%%mzn-stat: variables=380
%%%mzn-stat: propagators=450
%%%mzn-stat: failures=109
%%%mzn-stat: propagations=26468
%%%mzn-stat: nogoods=109
%%%mzn-stat: numAtomicConstraintsPropagated=0
%%%mzn-stat: circuitNumber191PropagationsThatFoundConflict=11
%%%mzn-stat: circuitNumber191TotalFixedEdgesAtConflict=173
%%%mzn-stat: circuitNumber191NumberOfConflicts=11
%%%mzn-stat: circuitNumber191PropagationsThatPruned=52
%%%mzn-stat: circuitNumber191PropagationsTotal=369
%%%mzn-stat: AverageConflictSize=3.36697247706422
%%%mzn-stat: NumUnitNogoodsLearned=0
%%%mzn-stat: AverageLearnedNogoodLength=16.431192660550458
%%%mzn-stat: AverageBacktrackAmount=0
%%%mzn-stat: AverageLbd=7.715596330275229
%%%mzn-stat: 2AutonomousSearchNumBackupCalled=2107
%%%mzn-stat: 2AutonomousSearchNumPredicatesRemoved=0
%%%mzn-stat: 2AutonomousSearchNumCalls=2123
%%%mzn-stat: 2AutonomousSearchNumPredicatesAdded=2387
%%%mzn-stat: 2AutonomousSearchAverageSizeOfHeap=2.9872821479039096
%%%mzn-stat: 2AutonomousSearchNumAssignedPredicatesEncountered=6342
%%%mzn-stat-end
maxleg = 370;
succ = array1d(1..20,[2, 5, 6, 14, 16, 8, 17, 15, 10, 20, 12, 3, 11, 1, 9, 7, 18, 13, 4, 19]);
% time elapsed: 6.12 s
----------
%%%mzn-stat: initTime=0.016817814
%%%mzn-stat: objective=360
%%%mzn-stat: nodes=2688
%%%mzn-stat: restarts=0
%%%mzn-stat: peakDepth=185
%%%mzn-stat: solveTime=0.020896055
%%%mzn-stat: variables=380
%%%mzn-stat: propagators=450
%%%mzn-stat: failures=242
%%%mzn-stat: propagations=49001
%%%mzn-stat: nogoods=242
%%%mzn-stat: numAtomicConstraintsPropagated=0
%%%mzn-stat: circuitNumber191PropagationsThatFoundConflict=30
%%%mzn-stat: circuitNumber191TotalFixedEdgesAtConflict=506
%%%mzn-stat: circuitNumber191NumberOfConflicts=30
%%%mzn-stat: circuitNumber191PropagationsThatPruned=124
%%%mzn-stat: circuitNumber191PropagationsTotal=584
%%%mzn-stat: AverageConflictSize=4.309917355371901
%%%mzn-stat: NumUnitNogoodsLearned=0
%%%mzn-stat: AverageLearnedNogoodLength=23.65289256198347
%%%mzn-stat: AverageBacktrackAmount=0
%%%mzn-stat: AverageLbd=7.491735537190083
%%%mzn-stat: 2AutonomousSearchNumBackupCalled=2198
%%%mzn-stat: 2AutonomousSearchNumPredicatesRemoved=0
%%%mzn-stat: 2AutonomousSearchNumCalls=2215
%%%mzn-stat: 2AutonomousSearchNumPredicatesAdded=2929
%%%mzn-stat: 2AutonomousSearchAverageSizeOfHeap=3.160270880361174
%%%mzn-stat: 2AutonomousSearchNumAssignedPredicatesEncountered=7000
%%%mzn-stat-end
maxleg = 360;
succ = array1d(1..20,[2, 5, 6, 19, 16, 8, 17, 15, 10, 18, 12, 3, 11, 4, 9, 7, 20, 14, 1, 13]);
% time elapsed: 6.12 s
----------
%%%mzn-stat: initTime=0.016817814
%%%mzn-stat: objective=357
%%%mzn-stat: nodes=2786
%%%mzn-stat: restarts=0
%%%mzn-stat: peakDepth=185
%%%mzn-stat: solveTime=0.021227024
%%%mzn-stat: variables=380
%%%mzn-stat: propagators=450
%%%mzn-stat: failures=243
%%%mzn-stat: propagations=49910
%%%mzn-stat: nogoods=243
%%%mzn-stat: numAtomicConstraintsPropagated=0
%%%mzn-stat: circuitNumber191PropagationsThatFoundConflict=30
%%%mzn-stat: circuitNumber191TotalFixedEdgesAtConflict=506
%%%mzn-stat: circuitNumber191NumberOfConflicts=30
%%%mzn-stat: circuitNumber191PropagationsThatPruned=128
%%%mzn-stat: circuitNumber191PropagationsTotal=598
%%%mzn-stat: AverageConflictSize=4.300411522633745
%%%mzn-stat: NumUnitNogoodsLearned=0
%%%mzn-stat: AverageLearnedNogoodLength=23.621399176954732
%%%mzn-stat: AverageBacktrackAmount=0
%%%mzn-stat: AverageLbd=7.497942386831276
%%%mzn-stat: 2AutonomousSearchNumBackupCalled=2286
%%%mzn-stat: 2AutonomousSearchNumPredicatesRemoved=0
%%%mzn-stat: 2AutonomousSearchNumCalls=2304
%%%mzn-stat: 2AutonomousSearchNumPredicatesAdded=2976
%%%mzn-stat: 2AutonomousSearchAverageSizeOfHeap=3.3237847222222223
%%%mzn-stat: 2AutonomousSearchNumAssignedPredicatesEncountered=7658
%%%mzn-stat-end
maxleg = 357;
succ = array1d(1..20,[2, 5, 6, 19, 16, 8, 17, 15, 10, 20, 12, 3, 11, 4, 9, 7, 18, 13, 1, 14]);
% time elapsed: 6.12 s
----------
==========
% time elapsed: 6.59 s
%%%mzn-stat: initTime=0.016817814
%%%mzn-stat: objective=357
%%%mzn-stat: nodes=7221
%%%mzn-stat: restarts=0
%%%mzn-stat: peakDepth=185
%%%mzn-stat: solveTime=0.552556433
%%%mzn-stat: variables=380
%%%mzn-stat: propagators=450
%%%mzn-stat: failures=4453
%%%mzn-stat: propagations=762981
%%%mzn-stat: nogoods=4453
%%%mzn-stat: numAtomicConstraintsPropagated=0
%%%mzn-stat: circuitNumber191PropagationsThatFoundConflict=464
%%%mzn-stat: circuitNumber191TotalFixedEdgesAtConflict=6666
%%%mzn-stat: circuitNumber191NumberOfConflicts=464
%%%mzn-stat: circuitNumber191PropagationsThatPruned=2784
%%%mzn-stat: circuitNumber191PropagationsTotal=7535
%%%mzn-stat: AverageConflictSize=10.311475409836065
%%%mzn-stat: NumUnitNogoodsLearned=1
%%%mzn-stat: AverageLearnedNogoodLength=41.30002245677072
%%%mzn-stat: AverageBacktrackAmount=0
%%%mzn-stat: AverageLbd=6.094543004715922
%%%mzn-stat: 2AutonomousSearchNumBackupCalled=2286
%%%mzn-stat: 2AutonomousSearchNumPredicatesRemoved=0
%%%mzn-stat: 2AutonomousSearchNumCalls=2304
%%%mzn-stat: 2AutonomousSearchNumPredicatesAdded=3897
%%%mzn-stat: 2AutonomousSearchAverageSizeOfHeap=3.3237847222222223
%%%mzn-stat: 2AutonomousSearchNumAssignedPredicatesEncountered=7658
%%%mzn-stat-end
